p cnf 420 2114
1 2 3 0
-91 0
-1 92 0
-2 92 0
-1 -2 93 0
-3 94 0
-91 94 0
-3 -91 95 0
-92 96 0
-94 96 0
-92 -94 97 0
-93 98 0
-95 98 0
-93 -95 99 0
-97 100 0
-98 100 0
-97 -98 101 0
-100 0
19 20 21 0
-102 0
-19 103 0
-20 103 0
-19 -20 104 0
-21 105 0
-102 105 0
-21 -102 106 0
-103 107 0
-105 107 0
-103 -105 108 0
-104 109 0
-106 109 0
-104 -106 110 0
-108 111 0
-109 111 0
-108 -109 112 0
-111 0
37 38 39 0
-113 0
-37 114 0
-38 114 0
-37 -38 115 0
-39 116 0
-113 116 0
-39 -113 117 0
-114 118 0
-116 118 0
-114 -116 119 0
-115 120 0
-117 120 0
-115 -117 121 0
-119 122 0
-120 122 0
-119 -120 123 0
-122 0
55 56 57 0
-124 0
-55 125 0
-56 125 0
-55 -56 126 0
-57 127 0
-124 127 0
-57 -124 128 0
-125 129 0
-127 129 0
-125 -127 130 0
-126 131 0
-128 131 0
-126 -128 132 0
-130 133 0
-131 133 0
-130 -131 134 0
-133 0
73 74 75 0
-135 0
-73 136 0
-74 136 0
-73 -74 137 0
-75 138 0
-135 138 0
-75 -135 139 0
-136 140 0
-138 140 0
-136 -138 141 0
-137 142 0
-139 142 0
-137 -139 143 0
-141 144 0
-142 144 0
-141 -142 145 0
-144 0
4 5 6 0
-146 0
-4 147 0
-5 147 0
-4 -5 148 0
-6 149 0
-146 149 0
-6 -146 150 0
-147 151 0
-149 151 0
-147 -149 152 0
-148 153 0
-150 153 0
-148 -150 154 0
-152 155 0
-153 155 0
-152 -153 156 0
-155 0
22 23 24 0
-157 0
-22 158 0
-23 158 0
-22 -23 159 0
-24 160 0
-157 160 0
-24 -157 161 0
-158 162 0
-160 162 0
-158 -160 163 0
-159 164 0
-161 164 0
-159 -161 165 0
-163 166 0
-164 166 0
-163 -164 167 0
-166 0
40 41 42 0
-168 0
-40 169 0
-41 169 0
-40 -41 170 0
-42 171 0
-168 171 0
-42 -168 172 0
-169 173 0
-171 173 0
-169 -171 174 0
-170 175 0
-172 175 0
-170 -172 176 0
-174 177 0
-175 177 0
-174 -175 178 0
-177 0
58 59 60 0
-179 0
-58 180 0
-59 180 0
-58 -59 181 0
-60 182 0
-179 182 0
-60 -179 183 0
-180 184 0
-182 184 0
-180 -182 185 0
-181 186 0
-183 186 0
-181 -183 187 0
-185 188 0
-186 188 0
-185 -186 189 0
-188 0
76 77 78 0
-190 0
-76 191 0
-77 191 0
-76 -77 192 0
-78 193 0
-190 193 0
-78 -190 194 0
-191 195 0
-193 195 0
-191 -193 196 0
-192 197 0
-194 197 0
-192 -194 198 0
-196 199 0
-197 199 0
-196 -197 200 0
-199 0
7 8 9 0
-201 0
-7 202 0
-8 202 0
-7 -8 203 0
-9 204 0
-201 204 0
-9 -201 205 0
-202 206 0
-204 206 0
-202 -204 207 0
-203 208 0
-205 208 0
-203 -205 209 0
-207 210 0
-208 210 0
-207 -208 211 0
-210 0
25 26 27 0
-212 0
-25 213 0
-26 213 0
-25 -26 214 0
-27 215 0
-212 215 0
-27 -212 216 0
-213 217 0
-215 217 0
-213 -215 218 0
-214 219 0
-216 219 0
-214 -216 220 0
-218 221 0
-219 221 0
-218 -219 222 0
-221 0
43 44 45 0
-223 0
-43 224 0
-44 224 0
-43 -44 225 0
-45 226 0
-223 226 0
-45 -223 227 0
-224 228 0
-226 228 0
-224 -226 229 0
-225 230 0
-227 230 0
-225 -227 231 0
-229 232 0
-230 232 0
-229 -230 233 0
-232 0
61 62 63 0
-234 0
-61 235 0
-62 235 0
-61 -62 236 0
-63 237 0
-234 237 0
-63 -234 238 0
-235 239 0
-237 239 0
-235 -237 240 0
-236 241 0
-238 241 0
-236 -238 242 0
-240 243 0
-241 243 0
-240 -241 244 0
-243 0
79 80 81 0
-245 0
-79 246 0
-80 246 0
-79 -80 247 0
-81 248 0
-245 248 0
-81 -245 249 0
-246 250 0
-248 250 0
-246 -248 251 0
-247 252 0
-249 252 0
-247 -249 253 0
-251 254 0
-252 254 0
-251 -252 255 0
-254 0
10 11 12 0
-256 0
-10 257 0
-11 257 0
-10 -11 258 0
-12 259 0
-256 259 0
-12 -256 260 0
-257 261 0
-259 261 0
-257 -259 262 0
-258 263 0
-260 263 0
-258 -260 264 0
-262 265 0
-263 265 0
-262 -263 266 0
-265 0
28 29 30 0
-267 0
-28 268 0
-29 268 0
-28 -29 269 0
-30 270 0
-267 270 0
-30 -267 271 0
-268 272 0
-270 272 0
-268 -270 273 0
-269 274 0
-271 274 0
-269 -271 275 0
-273 276 0
-274 276 0
-273 -274 277 0
-276 0
46 47 48 0
-278 0
-46 279 0
-47 279 0
-46 -47 280 0
-48 281 0
-278 281 0
-48 -278 282 0
-279 283 0
-281 283 0
-279 -281 284 0
-280 285 0
-282 285 0
-280 -282 286 0
-284 287 0
-285 287 0
-284 -285 288 0
-287 0
64 65 66 0
-289 0
-64 290 0
-65 290 0
-64 -65 291 0
-66 292 0
-289 292 0
-66 -289 293 0
-290 294 0
-292 294 0
-290 -292 295 0
-291 296 0
-293 296 0
-291 -293 297 0
-295 298 0
-296 298 0
-295 -296 299 0
-298 0
82 83 84 0
-300 0
-82 301 0
-83 301 0
-82 -83 302 0
-84 303 0
-300 303 0
-84 -300 304 0
-301 305 0
-303 305 0
-301 -303 306 0
-302 307 0
-304 307 0
-302 -304 308 0
-306 309 0
-307 309 0
-306 -307 310 0
-309 0
13 14 15 0
-311 0
-13 312 0
-14 312 0
-13 -14 313 0
-15 314 0
-311 314 0
-15 -311 315 0
-312 316 0
-314 316 0
-312 -314 317 0
-313 318 0
-315 318 0
-313 -315 319 0
-317 320 0
-318 320 0
-317 -318 321 0
-320 0
31 32 33 0
-322 0
-31 323 0
-32 323 0
-31 -32 324 0
-33 325 0
-322 325 0
-33 -322 326 0
-323 327 0
-325 327 0
-323 -325 328 0
-324 329 0
-326 329 0
-324 -326 330 0
-328 331 0
-329 331 0
-328 -329 332 0
-331 0
49 50 51 0
-333 0
-49 334 0
-50 334 0
-49 -50 335 0
-51 336 0
-333 336 0
-51 -333 337 0
-334 338 0
-336 338 0
-334 -336 339 0
-335 340 0
-337 340 0
-335 -337 341 0
-339 342 0
-340 342 0
-339 -340 343 0
-342 0
67 68 69 0
-344 0
-67 345 0
-68 345 0
-67 -68 346 0
-69 347 0
-344 347 0
-69 -344 348 0
-345 349 0
-347 349 0
-345 -347 350 0
-346 351 0
-348 351 0
-346 -348 352 0
-350 353 0
-351 353 0
-350 -351 354 0
-353 0
85 86 87 0
-355 0
-85 356 0
-86 356 0
-85 -86 357 0
-87 358 0
-355 358 0
-87 -355 359 0
-356 360 0
-358 360 0
-356 -358 361 0
-357 362 0
-359 362 0
-357 -359 363 0
-361 364 0
-362 364 0
-361 -362 365 0
-364 0
16 17 18 0
-366 0
-16 367 0
-17 367 0
-16 -17 368 0
-18 369 0
-366 369 0
-18 -366 370 0
-367 371 0
-369 371 0
-367 -369 372 0
-368 373 0
-370 373 0
-368 -370 374 0
-372 375 0
-373 375 0
-372 -373 376 0
-375 0
34 35 36 0
-377 0
-34 378 0
-35 378 0
-34 -35 379 0
-36 380 0
-377 380 0
-36 -377 381 0
-378 382 0
-380 382 0
-378 -380 383 0
-379 384 0
-381 384 0
-379 -381 385 0
-383 386 0
-384 386 0
-383 -384 387 0
-386 0
52 53 54 0
-388 0
-52 389 0
-53 389 0
-52 -53 390 0
-54 391 0
-388 391 0
-54 -388 392 0
-389 393 0
-391 393 0
-389 -391 394 0
-390 395 0
-392 395 0
-390 -392 396 0
-394 397 0
-395 397 0
-394 -395 398 0
-397 0
70 71 72 0
-399 0
-70 400 0
-71 400 0
-70 -71 401 0
-72 402 0
-399 402 0
-72 -399 403 0
-400 404 0
-402 404 0
-400 -402 405 0
-401 406 0
-403 406 0
-401 -403 407 0
-405 408 0
-406 408 0
-405 -406 409 0
-408 0
88 89 90 0
-410 0
-88 411 0
-89 411 0
-88 -89 412 0
-90 413 0
-410 413 0
-90 -410 414 0
-411 415 0
-413 415 0
-411 -413 416 0
-412 417 0
-414 417 0
-412 -414 418 0
-416 419 0
-417 419 0
-416 -417 420 0
-419 0
-1 -19 -37 -55 -73 5 0
-1 -20 -37 -55 -73 5 0
-1 -21 -37 -55 -73 5 0
-1 -19 -38 -55 -73 5 0
-1 -20 -38 -55 -73 5 0
-1 -21 -38 -55 -73 5 0
-1 -19 -39 -55 -73 5 0
-1 -20 -39 -55 -73 5 0
-1 -21 -39 -55 -73 5 0
-1 -19 -37 -56 -73 5 0
-1 -20 -37 -56 -73 5 0
-1 -21 -37 -56 -73 5 0
-1 -19 -38 -56 -73 5 0
-1 -20 -38 -56 -73 5 0
-1 -21 -38 -56 -73 5 0
-1 -19 -39 -56 -73 5 0
-1 -20 -39 -56 -73 5 0
-1 -21 -39 -56 -73 5 0
-1 -19 -37 -57 -73 5 0
-1 -20 -37 -57 -73 5 0
-1 -21 -37 -57 -73 5 0
-1 -19 -38 -57 -73 5 0
-1 -20 -38 -57 -73 5 0
-1 -21 -38 -57 -73 5 0
-1 -19 -39 -57 -73 5 0
-1 -20 -39 -57 -73 5 0
-1 -21 -39 -57 -73 5 0
-1 -19 -37 -55 -74 5 0
-1 -20 -37 -55 -74 5 0
-1 -21 -37 -55 -74 5 0
-1 -19 -38 -55 -74 5 0
-1 -20 -38 -55 -74 5 0
-1 -21 -38 -55 -74 5 0
-1 -19 -39 -55 -74 5 0
-1 -20 -39 -55 -74 5 0
-1 -21 -39 -55 -74 5 0
-1 -19 -37 -56 -74 5 0
-1 -20 -37 -56 -74 5 0
-1 -21 -37 -56 -74 5 0
-1 -19 -38 -56 -74 5 0
-1 -20 -38 -56 -74 5 0
-1 -21 -38 -56 -74 5 0
-1 -19 -39 -56 -74 5 0
-1 -20 -39 -56 -74 5 0
-1 -21 -39 -56 -74 5 0
-1 -19 -37 -57 -74 5 0
-1 -20 -37 -57 -74 5 0
-1 -21 -37 -57 -74 5 0
-1 -19 -38 -57 -74 5 0
-1 -20 -38 -57 -74 5 0
-1 -21 -38 -57 -74 5 0
-1 -19 -39 -57 -74 5 0
-1 -20 -39 -57 -74 5 0
-1 -21 -39 -57 -74 5 0
-1 -19 -37 -55 -75 5 0
-1 -20 -37 -55 -75 5 0
-1 -21 -37 -55 -75 5 0
-1 -19 -38 -55 -75 5 0
-1 -20 -38 -55 -75 5 0
-1 -21 -38 -55 -75 5 0
-1 -19 -39 -55 -75 5 0
-1 -20 -39 -55 -75 5 0
-1 -21 -39 -55 -75 5 0
-1 -19 -37 -56 -75 5 0
-1 -20 -37 -56 -75 5 0
-1 -21 -37 -56 -75 5 0
-1 -19 -38 -56 -75 5 0
-1 -20 -38 -56 -75 5 0
-1 -21 -38 -56 -75 5 0
-1 -19 -39 -56 -75 5 0
-1 -20 -39 -56 -75 5 0
-1 -21 -39 -56 -75 5 0
-1 -19 -37 -57 -75 5 0
-1 -20 -37 -57 -75 5 0
-1 -21 -37 -57 -75 5 0
-1 -19 -38 -57 -75 5 0
-1 -20 -38 -57 -75 5 0
-1 -21 -38 -57 -75 5 0
-1 -19 -39 -57 -75 5 0
-1 -20 -39 -57 -75 5 0
-1 -21 -39 -57 -75 5 0
-2 -19 -37 -55 -73 5 0
-2 -20 -37 -55 -73 5 0
-2 -21 -37 -55 -73 5 0
-2 -19 -38 -55 -73 5 0
-2 -20 -38 -55 -73 5 0
-2 -21 -38 -55 -73 5 0
-2 -19 -39 -55 -73 5 0
-2 -20 -39 -55 -73 5 0
-2 -21 -39 -55 -73 5 0
-2 -19 -37 -56 -73 5 0
-2 -20 -37 -56 -73 5 0
-2 -21 -37 -56 -73 5 0
-2 -19 -38 -56 -73 5 0
-2 -20 -38 -56 -73 5 0
-2 -21 -38 -56 -73 5 0
-2 -19 -39 -56 -73 5 0
-2 -20 -39 -56 -73 5 0
-2 -21 -39 -56 -73 5 0
-2 -19 -37 -57 -73 5 0
-2 -20 -37 -57 -73 5 0
-2 -21 -37 -57 -73 5 0
-2 -19 -38 -57 -73 5 0
-2 -20 -38 -57 -73 5 0
-2 -21 -38 -57 -73 5 0
-2 -19 -39 -57 -73 5 0
-2 -20 -39 -57 -73 5 0
-2 -21 -39 -57 -73 5 0
-2 -19 -37 -55 -74 5 0
-2 -20 -37 -55 -74 5 0
-2 -21 -37 -55 -74 5 0
-2 -19 -38 -55 -74 5 0
-2 -20 -38 -55 -74 5 0
-2 -21 -38 -55 -74 5 0
-2 -19 -39 -55 -74 5 0
-2 -20 -39 -55 -74 5 0
-2 -21 -39 -55 -74 5 0
-2 -19 -37 -56 -74 5 0
-2 -20 -37 -56 -74 5 0
-2 -21 -37 -56 -74 5 0
-2 -19 -38 -56 -74 5 0
-2 -20 -38 -56 -74 6 0
-2 -21 -38 -56 -74 6 0
-2 -19 -39 -56 -74 5 0
-2 -20 -39 -56 -74 6 0
-2 -21 -39 -56 -74 6 0
-2 -19 -37 -57 -74 5 0
-2 -20 -37 -57 -74 5 0
-2 -21 -37 -57 -74 5 0
-2 -19 -38 -57 -74 5 0
-2 -20 -38 -57 -74 6 0
-2 -21 -38 -57 -74 6 0
-2 -19 -39 -57 -74 5 0
-2 -20 -39 -57 -74 6 0
-2 -21 -39 -57 -74 6 0
-2 -19 -37 -55 -75 5 0
-2 -20 -37 -55 -75 5 0
-2 -21 -37 -55 -75 5 0
-2 -19 -38 -55 -75 5 0
-2 -20 -38 -55 -75 5 0
-2 -21 -38 -55 -75 5 0
-2 -19 -39 -55 -75 5 0
-2 -20 -39 -55 -75 5 0
-2 -21 -39 -55 -75 5 0
-2 -19 -37 -56 -75 5 0
-2 -20 -37 -56 -75 5 0
-2 -21 -37 -56 -75 5 0
-2 -19 -38 -56 -75 5 0
-2 -20 -38 -56 -75 6 0
-2 -21 -38 -56 -75 6 0
-2 -19 -39 -56 -75 5 0
-2 -20 -39 -56 -75 6 0
-2 -21 -39 -56 -75 6 0
-2 -19 -37 -57 -75 5 0
-2 -20 -37 -57 -75 5 0
-2 -21 -37 -57 -75 5 0
-2 -19 -38 -57 -75 5 0
-2 -20 -38 -57 -75 6 0
-2 -21 -38 -57 -75 6 0
-2 -19 -39 -57 -75 5 0
-2 -20 -39 -57 -75 6 0
-2 -21 -39 -57 -75 6 0
-3 -19 -37 -55 -73 5 0
-3 -20 -37 -55 -73 5 0
-3 -21 -37 -55 -73 5 0
-3 -19 -38 -55 -73 5 0
-3 -20 -38 -55 -73 5 0
-3 -21 -38 -55 -73 5 0
-3 -19 -39 -55 -73 5 0
-3 -20 -39 -55 -73 5 0
-3 -21 -39 -55 -73 5 0
-3 -19 -37 -56 -73 5 0
-3 -20 -37 -56 -73 5 0
-3 -21 -37 -56 -73 5 0
-3 -19 -38 -56 -73 5 0
-3 -20 -38 -56 -73 5 0
-3 -21 -38 -56 -73 5 0
-3 -19 -39 -56 -73 5 0
-3 -20 -39 -56 -73 5 0
-3 -21 -39 -56 -73 5 0
-3 -19 -37 -57 -73 5 0
-3 -20 -37 -57 -73 5 0
-3 -21 -37 -57 -73 5 0
-3 -19 -38 -57 -73 5 0
-3 -20 -38 -57 -73 5 0
-3 -21 -38 -57 -73 5 0
-3 -19 -39 -57 -73 5 0
-3 -20 -39 -57 -73 5 0
-3 -21 -39 -57 -73 5 0
-3 -19 -37 -55 -74 5 0
-3 -20 -37 -55 -74 5 0
-3 -21 -37 -55 -74 5 0
-3 -19 -38 -55 -74 5 0
-3 -20 -38 -55 -74 5 0
-3 -21 -38 -55 -74 5 0
-3 -19 -39 -55 -74 5 0
-3 -20 -39 -55 -74 5 0
-3 -21 -39 -55 -74 5 0
-3 -19 -37 -56 -74 5 0
-3 -20 -37 -56 -74 5 0
-3 -21 -37 -56 -74 5 0
-3 -19 -38 -56 -74 5 0
-3 -20 -38 -56 -74 6 0
-3 -21 -38 -56 -74 6 0
-3 -19 -39 -56 -74 5 0
-3 -20 -39 -56 -74 6 0
-3 -21 -39 -56 -74 6 0
-3 -19 -37 -57 -74 5 0
-3 -20 -37 -57 -74 5 0
-3 -21 -37 -57 -74 5 0
-3 -19 -38 -57 -74 5 0
-3 -20 -38 -57 -74 6 0
-3 -21 -38 -57 -74 6 0
-3 -19 -39 -57 -74 5 0
-3 -20 -39 -57 -74 6 0
-3 -21 -39 -57 -74 6 0
-3 -19 -37 -55 -75 5 0
-3 -20 -37 -55 -75 5 0
-3 -21 -37 -55 -75 5 0
-3 -19 -38 -55 -75 5 0
-3 -20 -38 -55 -75 5 0
-3 -21 -38 -55 -75 5 0
-3 -19 -39 -55 -75 5 0
-3 -20 -39 -55 -75 5 0
-3 -21 -39 -55 -75 5 0
-3 -19 -37 -56 -75 5 0
-3 -20 -37 -56 -75 5 0
-3 -21 -37 -56 -75 5 0
-3 -19 -38 -56 -75 5 0
-3 -20 -38 -56 -75 6 0
-3 -21 -38 -56 -75 6 0
-3 -19 -39 -56 -75 5 0
-3 -20 -39 -56 -75 6 0
-3 -21 -39 -56 -75 6 0
-3 -19 -37 -57 -75 5 0
-3 -20 -37 -57 -75 5 0
-3 -21 -37 -57 -75 5 0
-3 -19 -38 -57 -75 5 0
-3 -20 -38 -57 -75 6 0
-3 -21 -38 -57 -75 6 0
-3 -19 -39 -57 -75 5 0
-3 -20 -39 -57 -75 6 0
-3 -21 -39 -57 -75 4 0
-19 -1 23 0
-19 -2 23 0
-19 -3 23 0
-20 -1 23 0
-20 -2 24 0
-20 -3 24 0
-21 -1 23 0
-21 -2 24 0
-21 -3 22 0
-37 -1 41 0
-37 -2 41 0
-37 -3 41 0
-38 -1 41 0
-38 -2 42 0
-38 -3 42 0
-39 -1 41 0
-39 -2 42 0
-39 -3 40 0
-55 -1 59 0
-55 -2 59 0
-55 -3 59 0
-56 -1 59 0
-56 -2 60 0
-56 -3 60 0
-57 -1 59 0
-57 -2 60 0
-57 -3 58 0
-73 -1 77 0
-73 -2 77 0
-73 -3 77 0
-74 -1 77 0
-74 -2 78 0
-74 -3 78 0
-75 -1 77 0
-75 -2 78 0
-75 -3 76 0
-4 -22 -40 -58 -76 8 0
-4 -23 -40 -58 -76 8 0
-4 -24 -40 -58 -76 8 0
-4 -22 -41 -58 -76 8 0
-4 -23 -41 -58 -76 8 0
-4 -24 -41 -58 -76 8 0
-4 -22 -42 -58 -76 8 0
-4 -23 -42 -58 -76 8 0
-4 -24 -42 -58 -76 8 0
-4 -22 -40 -59 -76 8 0
-4 -23 -40 -59 -76 8 0
-4 -24 -40 -59 -76 8 0
-4 -22 -41 -59 -76 8 0
-4 -23 -41 -59 -76 8 0
-4 -24 -41 -59 -76 8 0
-4 -22 -42 -59 -76 8 0
-4 -23 -42 -59 -76 8 0
-4 -24 -42 -59 -76 8 0
-4 -22 -40 -60 -76 8 0
-4 -23 -40 -60 -76 8 0
-4 -24 -40 -60 -76 8 0
-4 -22 -41 -60 -76 8 0
-4 -23 -41 -60 -76 8 0
-4 -24 -41 -60 -76 8 0
-4 -22 -42 -60 -76 8 0
-4 -23 -42 -60 -76 8 0
-4 -24 -42 -60 -76 8 0
-4 -22 -40 -58 -77 8 0
-4 -23 -40 -58 -77 8 0
-4 -24 -40 -58 -77 8 0
-4 -22 -41 -58 -77 8 0
-4 -23 -41 -58 -77 8 0
-4 -24 -41 -58 -77 8 0
-4 -22 -42 -58 -77 8 0
-4 -23 -42 -58 -77 8 0
-4 -24 -42 -58 -77 8 0
-4 -22 -40 -59 -77 8 0
-4 -23 -40 -59 -77 8 0
-4 -24 -40 -59 -77 8 0
-4 -22 -41 -59 -77 8 0
-4 -23 -41 -59 -77 8 0
-4 -24 -41 -59 -77 8 0
-4 -22 -42 -59 -77 8 0
-4 -23 -42 -59 -77 8 0
-4 -24 -42 -59 -77 8 0
-4 -22 -40 -60 -77 8 0
-4 -23 -40 -60 -77 8 0
-4 -24 -40 -60 -77 8 0
-4 -22 -41 -60 -77 8 0
-4 -23 -41 -60 -77 8 0
-4 -24 -41 -60 -77 8 0
-4 -22 -42 -60 -77 8 0
-4 -23 -42 -60 -77 8 0
-4 -24 -42 -60 -77 8 0
-4 -22 -40 -58 -78 8 0
-4 -23 -40 -58 -78 8 0
-4 -24 -40 -58 -78 8 0
-4 -22 -41 -58 -78 8 0
-4 -23 -41 -58 -78 8 0
-4 -24 -41 -58 -78 8 0
-4 -22 -42 -58 -78 8 0
-4 -23 -42 -58 -78 8 0
-4 -24 -42 -58 -78 8 0
-4 -22 -40 -59 -78 8 0
-4 -23 -40 -59 -78 8 0
-4 -24 -40 -59 -78 8 0
-4 -22 -41 -59 -78 8 0
-4 -23 -41 -59 -78 8 0
-4 -24 -41 -59 -78 8 0
-4 -22 -42 -59 -78 8 0
-4 -23 -42 -59 -78 8 0
-4 -24 -42 -59 -78 8 0
-4 -22 -40 -60 -78 8 0
-4 -23 -40 -60 -78 8 0
-4 -24 -40 -60 -78 8 0
-4 -22 -41 -60 -78 8 0
-4 -23 -41 -60 -78 8 0
-4 -24 -41 -60 -78 8 0
-4 -22 -42 -60 -78 8 0
-4 -23 -42 -60 -78 8 0
-4 -24 -42 -60 -78 8 0
-5 -22 -40 -58 -76 8 0
-5 -23 -40 -58 -76 8 0
-5 -24 -40 -58 -76 8 0
-5 -22 -41 -58 -76 8 0
-5 -23 -41 -58 -76 8 0
-5 -24 -41 -58 -76 8 0
-5 -22 -42 -58 -76 8 0
-5 -23 -42 -58 -76 8 0
-5 -24 -42 -58 -76 8 0
-5 -22 -40 -59 -76 8 0
-5 -23 -40 -59 -76 8 0
-5 -24 -40 -59 -76 8 0
-5 -22 -41 -59 -76 8 0
-5 -23 -41 -59 -76 8 0
-5 -24 -41 -59 -76 8 0
-5 -22 -42 -59 -76 8 0
-5 -23 -42 -59 -76 8 0
-5 -24 -42 -59 -76 8 0
-5 -22 -40 -60 -76 8 0
-5 -23 -40 -60 -76 8 0
-5 -24 -40 -60 -76 8 0
-5 -22 -41 -60 -76 8 0
-5 -23 -41 -60 -76 8 0
-5 -24 -41 -60 -76 8 0
-5 -22 -42 -60 -76 8 0
-5 -23 -42 -60 -76 8 0
-5 -24 -42 -60 -76 8 0
-5 -22 -40 -58 -77 8 0
-5 -23 -40 -58 -77 8 0
-5 -24 -40 -58 -77 8 0
-5 -22 -41 -58 -77 8 0
-5 -23 -41 -58 -77 8 0
-5 -24 -41 -58 -77 8 0
-5 -22 -42 -58 -77 8 0
-5 -23 -42 -58 -77 8 0
-5 -24 -42 -58 -77 8 0
-5 -22 -40 -59 -77 8 0
-5 -23 -40 -59 -77 8 0
-5 -24 -40 -59 -77 8 0
-5 -22 -41 -59 -77 8 0
-5 -23 -41 -59 -77 9 0
-5 -24 -41 -59 -77 9 0
-5 -22 -42 -59 -77 8 0
-5 -23 -42 -59 -77 9 0
-5 -24 -42 -59 -77 9 0
-5 -22 -40 -60 -77 8 0
-5 -23 -40 -60 -77 8 0
-5 -24 -40 -60 -77 8 0
-5 -22 -41 -60 -77 8 0
-5 -23 -41 -60 -77 9 0
-5 -24 -41 -60 -77 9 0
-5 -22 -42 -60 -77 8 0
-5 -23 -42 -60 -77 9 0
-5 -24 -42 -60 -77 9 0
-5 -22 -40 -58 -78 8 0
-5 -23 -40 -58 -78 8 0
-5 -24 -40 -58 -78 8 0
-5 -22 -41 -58 -78 8 0
-5 -23 -41 -58 -78 8 0
-5 -24 -41 -58 -78 8 0
-5 -22 -42 -58 -78 8 0
-5 -23 -42 -58 -78 8 0
-5 -24 -42 -58 -78 8 0
-5 -22 -40 -59 -78 8 0
-5 -23 -40 -59 -78 8 0
-5 -24 -40 -59 -78 8 0
-5 -22 -41 -59 -78 8 0
-5 -23 -41 -59 -78 9 0
-5 -24 -41 -59 -78 9 0
-5 -22 -42 -59 -78 8 0
-5 -23 -42 -59 -78 9 0
-5 -24 -42 -59 -78 9 0
-5 -22 -40 -60 -78 8 0
-5 -23 -40 -60 -78 8 0
-5 -24 -40 -60 -78 8 0
-5 -22 -41 -60 -78 8 0
-5 -23 -41 -60 -78 9 0
-5 -24 -41 -60 -78 9 0
-5 -22 -42 -60 -78 8 0
-5 -23 -42 -60 -78 9 0
-5 -24 -42 -60 -78 9 0
-6 -22 -40 -58 -76 8 0
-6 -23 -40 -58 -76 8 0
-6 -24 -40 -58 -76 8 0
-6 -22 -41 -58 -76 8 0
-6 -23 -41 -58 -76 8 0
-6 -24 -41 -58 -76 8 0
-6 -22 -42 -58 -76 8 0
-6 -23 -42 -58 -76 8 0
-6 -24 -42 -58 -76 8 0
-6 -22 -40 -59 -76 8 0
-6 -23 -40 -59 -76 8 0
-6 -24 -40 -59 -76 8 0
-6 -22 -41 -59 -76 8 0
-6 -23 -41 -59 -76 8 0
-6 -24 -41 -59 -76 8 0
-6 -22 -42 -59 -76 8 0
-6 -23 -42 -59 -76 8 0
-6 -24 -42 -59 -76 8 0
-6 -22 -40 -60 -76 8 0
-6 -23 -40 -60 -76 8 0
-6 -24 -40 -60 -76 8 0
-6 -22 -41 -60 -76 8 0
-6 -23 -41 -60 -76 8 0
-6 -24 -41 -60 -76 8 0
-6 -22 -42 -60 -76 8 0
-6 -23 -42 -60 -76 8 0
-6 -24 -42 -60 -76 8 0
-6 -22 -40 -58 -77 8 0
-6 -23 -40 -58 -77 8 0
-6 -24 -40 -58 -77 8 0
-6 -22 -41 -58 -77 8 0
-6 -23 -41 -58 -77 8 0
-6 -24 -41 -58 -77 8 0
-6 -22 -42 -58 -77 8 0
-6 -23 -42 -58 -77 8 0
-6 -24 -42 -58 -77 8 0
-6 -22 -40 -59 -77 8 0
-6 -23 -40 -59 -77 8 0
-6 -24 -40 -59 -77 8 0
-6 -22 -41 -59 -77 8 0
-6 -23 -41 -59 -77 9 0
-6 -24 -41 -59 -77 9 0
-6 -22 -42 -59 -77 8 0
-6 -23 -42 -59 -77 9 0
-6 -24 -42 -59 -77 9 0
-6 -22 -40 -60 -77 8 0
-6 -23 -40 -60 -77 8 0
-6 -24 -40 -60 -77 8 0
-6 -22 -41 -60 -77 8 0
-6 -23 -41 -60 -77 9 0
-6 -24 -41 -60 -77 9 0
-6 -22 -42 -60 -77 8 0
-6 -23 -42 -60 -77 9 0
-6 -24 -42 -60 -77 9 0
-6 -22 -40 -58 -78 8 0
-6 -23 -40 -58 -78 8 0
-6 -24 -40 -58 -78 8 0
-6 -22 -41 -58 -78 8 0
-6 -23 -41 -58 -78 8 0
-6 -24 -41 -58 -78 8 0
-6 -22 -42 -58 -78 8 0
-6 -23 -42 -58 -78 8 0
-6 -24 -42 -58 -78 8 0
-6 -22 -40 -59 -78 8 0
-6 -23 -40 -59 -78 8 0
-6 -24 -40 -59 -78 8 0
-6 -22 -41 -59 -78 8 0
-6 -23 -41 -59 -78 9 0
-6 -24 -41 -59 -78 9 0
-6 -22 -42 -59 -78 8 0
-6 -23 -42 -59 -78 9 0
-6 -24 -42 -59 -78 9 0
-6 -22 -40 -60 -78 8 0
-6 -23 -40 -60 -78 8 0
-6 -24 -40 -60 -78 8 0
-6 -22 -41 -60 -78 8 0
-6 -23 -41 -60 -78 9 0
-6 -24 -41 -60 -78 9 0
-6 -22 -42 -60 -78 8 0
-6 -23 -42 -60 -78 9 0
-6 -24 -42 -60 -78 7 0
-22 -4 26 0
-22 -5 26 0
-22 -6 26 0
-23 -4 26 0
-23 -5 27 0
-23 -6 27 0
-24 -4 26 0
-24 -5 27 0
-24 -6 25 0
-40 -4 44 0
-40 -5 44 0
-40 -6 44 0
-41 -4 44 0
-41 -5 45 0
-41 -6 45 0
-42 -4 44 0
-42 -5 45 0
-42 -6 43 0
-58 -4 62 0
-58 -5 62 0
-58 -6 62 0
-59 -4 62 0
-59 -5 63 0
-59 -6 63 0
-60 -4 62 0
-60 -5 63 0
-60 -6 61 0
-76 -4 80 0
-76 -5 80 0
-76 -6 80 0
-77 -4 80 0
-77 -5 81 0
-77 -6 81 0
-78 -4 80 0
-78 -5 81 0
-78 -6 79 0
-7 -25 -43 -61 -79 11 0
-7 -26 -43 -61 -79 11 0
-7 -27 -43 -61 -79 11 0
-7 -25 -44 -61 -79 11 0
-7 -26 -44 -61 -79 11 0
-7 -27 -44 -61 -79 11 0
-7 -25 -45 -61 -79 11 0
-7 -26 -45 -61 -79 11 0
-7 -27 -45 -61 -79 11 0
-7 -25 -43 -62 -79 11 0
-7 -26 -43 -62 -79 11 0
-7 -27 -43 -62 -79 11 0
-7 -25 -44 -62 -79 11 0
-7 -26 -44 -62 -79 11 0
-7 -27 -44 -62 -79 11 0
-7 -25 -45 -62 -79 11 0
-7 -26 -45 -62 -79 11 0
-7 -27 -45 -62 -79 11 0
-7 -25 -43 -63 -79 11 0
-7 -26 -43 -63 -79 11 0
-7 -27 -43 -63 -79 11 0
-7 -25 -44 -63 -79 11 0
-7 -26 -44 -63 -79 11 0
-7 -27 -44 -63 -79 11 0
-7 -25 -45 -63 -79 11 0
-7 -26 -45 -63 -79 11 0
-7 -27 -45 -63 -79 11 0
-7 -25 -43 -61 -80 11 0
-7 -26 -43 -61 -80 11 0
-7 -27 -43 -61 -80 11 0
-7 -25 -44 -61 -80 11 0
-7 -26 -44 -61 -80 11 0
-7 -27 -44 -61 -80 11 0
-7 -25 -45 -61 -80 11 0
-7 -26 -45 -61 -80 11 0
-7 -27 -45 -61 -80 11 0
-7 -25 -43 -62 -80 11 0
-7 -26 -43 -62 -80 11 0
-7 -27 -43 -62 -80 11 0
-7 -25 -44 -62 -80 11 0
-7 -26 -44 -62 -80 11 0
-7 -27 -44 -62 -80 11 0
-7 -25 -45 -62 -80 11 0
-7 -26 -45 -62 -80 11 0
-7 -27 -45 -62 -80 11 0
-7 -25 -43 -63 -80 11 0
-7 -26 -43 -63 -80 11 0
-7 -27 -43 -63 -80 11 0
-7 -25 -44 -63 -80 11 0
-7 -26 -44 -63 -80 11 0
-7 -27 -44 -63 -80 11 0
-7 -25 -45 -63 -80 11 0
-7 -26 -45 -63 -80 11 0
-7 -27 -45 -63 -80 11 0
-7 -25 -43 -61 -81 11 0
-7 -26 -43 -61 -81 11 0
-7 -27 -43 -61 -81 11 0
-7 -25 -44 -61 -81 11 0
-7 -26 -44 -61 -81 11 0
-7 -27 -44 -61 -81 11 0
-7 -25 -45 -61 -81 11 0
-7 -26 -45 -61 -81 11 0
-7 -27 -45 -61 -81 11 0
-7 -25 -43 -62 -81 11 0
-7 -26 -43 -62 -81 11 0
-7 -27 -43 -62 -81 11 0
-7 -25 -44 -62 -81 11 0
-7 -26 -44 -62 -81 11 0
-7 -27 -44 -62 -81 11 0
-7 -25 -45 -62 -81 11 0
-7 -26 -45 -62 -81 11 0
-7 -27 -45 -62 -81 11 0
-7 -25 -43 -63 -81 11 0
-7 -26 -43 -63 -81 11 0
-7 -27 -43 -63 -81 11 0
-7 -25 -44 -63 -81 11 0
-7 -26 -44 -63 -81 11 0
-7 -27 -44 -63 -81 11 0
-7 -25 -45 -63 -81 11 0
-7 -26 -45 -63 -81 11 0
-7 -27 -45 -63 -81 11 0
-8 -25 -43 -61 -79 11 0
-8 -26 -43 -61 -79 11 0
-8 -27 -43 -61 -79 11 0
-8 -25 -44 -61 -79 11 0
-8 -26 -44 -61 -79 11 0
-8 -27 -44 -61 -79 11 0
-8 -25 -45 -61 -79 11 0
-8 -26 -45 -61 -79 11 0
-8 -27 -45 -61 -79 11 0
-8 -25 -43 -62 -79 11 0
-8 -26 -43 -62 -79 11 0
-8 -27 -43 -62 -79 11 0
-8 -25 -44 -62 -79 11 0
-8 -26 -44 -62 -79 11 0
-8 -27 -44 -62 -79 11 0
-8 -25 -45 -62 -79 11 0
-8 -26 -45 -62 -79 11 0
-8 -27 -45 -62 -79 11 0
-8 -25 -43 -63 -79 11 0
-8 -26 -43 -63 -79 11 0
-8 -27 -43 -63 -79 11 0
-8 -25 -44 -63 -79 11 0
-8 -26 -44 -63 -79 11 0
-8 -27 -44 -63 -79 11 0
-8 -25 -45 -63 -79 11 0
-8 -26 -45 -63 -79 11 0
-8 -27 -45 -63 -79 11 0
-8 -25 -43 -61 -80 11 0
-8 -26 -43 -61 -80 11 0
-8 -27 -43 -61 -80 11 0
-8 -25 -44 -61 -80 11 0
-8 -26 -44 -61 -80 11 0
-8 -27 -44 -61 -80 11 0
-8 -25 -45 -61 -80 11 0
-8 -26 -45 -61 -80 11 0
-8 -27 -45 -61 -80 11 0
-8 -25 -43 -62 -80 11 0
-8 -26 -43 -62 -80 11 0
-8 -27 -43 -62 -80 11 0
-8 -25 -44 -62 -80 11 0
-8 -26 -44 -62 -80 12 0
-8 -27 -44 -62 -80 12 0
-8 -25 -45 -62 -80 11 0
-8 -26 -45 -62 -80 12 0
-8 -27 -45 -62 -80 12 0
-8 -25 -43 -63 -80 11 0
-8 -26 -43 -63 -80 11 0
-8 -27 -43 -63 -80 11 0
-8 -25 -44 -63 -80 11 0
-8 -26 -44 -63 -80 12 0
-8 -27 -44 -63 -80 12 0
-8 -25 -45 -63 -80 11 0
-8 -26 -45 -63 -80 12 0
-8 -27 -45 -63 -80 12 0
-8 -25 -43 -61 -81 11 0
-8 -26 -43 -61 -81 11 0
-8 -27 -43 -61 -81 11 0
-8 -25 -44 -61 -81 11 0
-8 -26 -44 -61 -81 11 0
-8 -27 -44 -61 -81 11 0
-8 -25 -45 -61 -81 11 0
-8 -26 -45 -61 -81 11 0
-8 -27 -45 -61 -81 11 0
-8 -25 -43 -62 -81 11 0
-8 -26 -43 -62 -81 11 0
-8 -27 -43 -62 -81 11 0
-8 -25 -44 -62 -81 11 0
-8 -26 -44 -62 -81 12 0
-8 -27 -44 -62 -81 12 0
-8 -25 -45 -62 -81 11 0
-8 -26 -45 -62 -81 12 0
-8 -27 -45 -62 -81 12 0
-8 -25 -43 -63 -81 11 0
-8 -26 -43 -63 -81 11 0
-8 -27 -43 -63 -81 11 0
-8 -25 -44 -63 -81 11 0
-8 -26 -44 -63 -81 12 0
-8 -27 -44 -63 -81 12 0
-8 -25 -45 -63 -81 11 0
-8 -26 -45 -63 -81 12 0
-8 -27 -45 -63 -81 12 0
-9 -25 -43 -61 -79 11 0
-9 -26 -43 -61 -79 11 0
-9 -27 -43 -61 -79 11 0
-9 -25 -44 -61 -79 11 0
-9 -26 -44 -61 -79 11 0
-9 -27 -44 -61 -79 11 0
-9 -25 -45 -61 -79 11 0
-9 -26 -45 -61 -79 11 0
-9 -27 -45 -61 -79 11 0
-9 -25 -43 -62 -79 11 0
-9 -26 -43 -62 -79 11 0
-9 -27 -43 -62 -79 11 0
-9 -25 -44 -62 -79 11 0
-9 -26 -44 -62 -79 11 0
-9 -27 -44 -62 -79 11 0
-9 -25 -45 -62 -79 11 0
-9 -26 -45 -62 -79 11 0
-9 -27 -45 -62 -79 11 0
-9 -25 -43 -63 -79 11 0
-9 -26 -43 -63 -79 11 0
-9 -27 -43 -63 -79 11 0
-9 -25 -44 -63 -79 11 0
-9 -26 -44 -63 -79 11 0
-9 -27 -44 -63 -79 11 0
-9 -25 -45 -63 -79 11 0
-9 -26 -45 -63 -79 11 0
-9 -27 -45 -63 -79 11 0
-9 -25 -43 -61 -80 11 0
-9 -26 -43 -61 -80 11 0
-9 -27 -43 -61 -80 11 0
-9 -25 -44 -61 -80 11 0
-9 -26 -44 -61 -80 11 0
-9 -27 -44 -61 -80 11 0
-9 -25 -45 -61 -80 11 0
-9 -26 -45 -61 -80 11 0
-9 -27 -45 -61 -80 11 0
-9 -25 -43 -62 -80 11 0
-9 -26 -43 -62 -80 11 0
-9 -27 -43 -62 -80 11 0
-9 -25 -44 -62 -80 11 0
-9 -26 -44 -62 -80 12 0
-9 -27 -44 -62 -80 12 0
-9 -25 -45 -62 -80 11 0
-9 -26 -45 -62 -80 12 0
-9 -27 -45 -62 -80 12 0
-9 -25 -43 -63 -80 11 0
-9 -26 -43 -63 -80 11 0
-9 -27 -43 -63 -80 11 0
-9 -25 -44 -63 -80 11 0
-9 -26 -44 -63 -80 12 0
-9 -27 -44 -63 -80 12 0
-9 -25 -45 -63 -80 11 0
-9 -26 -45 -63 -80 12 0
-9 -27 -45 -63 -80 12 0
-9 -25 -43 -61 -81 11 0
-9 -26 -43 -61 -81 11 0
-9 -27 -43 -61 -81 11 0
-9 -25 -44 -61 -81 11 0
-9 -26 -44 -61 -81 11 0
-9 -27 -44 -61 -81 11 0
-9 -25 -45 -61 -81 11 0
-9 -26 -45 -61 -81 11 0
-9 -27 -45 -61 -81 11 0
-9 -25 -43 -62 -81 11 0
-9 -26 -43 -62 -81 11 0
-9 -27 -43 -62 -81 11 0
-9 -25 -44 -62 -81 11 0
-9 -26 -44 -62 -81 12 0
-9 -27 -44 -62 -81 12 0
-9 -25 -45 -62 -81 11 0
-9 -26 -45 -62 -81 12 0
-9 -27 -45 -62 -81 12 0
-9 -25 -43 -63 -81 11 0
-9 -26 -43 -63 -81 11 0
-9 -27 -43 -63 -81 11 0
-9 -25 -44 -63 -81 11 0
-9 -26 -44 -63 -81 12 0
-9 -27 -44 -63 -81 12 0
-9 -25 -45 -63 -81 11 0
-9 -26 -45 -63 -81 12 0
-9 -27 -45 -63 -81 10 0
-25 -7 29 0
-25 -8 29 0
-25 -9 29 0
-26 -7 29 0
-26 -8 30 0
-26 -9 30 0
-27 -7 29 0
-27 -8 30 0
-27 -9 28 0
-43 -7 47 0
-43 -8 47 0
-43 -9 47 0
-44 -7 47 0
-44 -8 48 0
-44 -9 48 0
-45 -7 47 0
-45 -8 48 0
-45 -9 46 0
-61 -7 65 0
-61 -8 65 0
-61 -9 65 0
-62 -7 65 0
-62 -8 66 0
-62 -9 66 0
-63 -7 65 0
-63 -8 66 0
-63 -9 64 0
-79 -7 83 0
-79 -8 83 0
-79 -9 83 0
-80 -7 83 0
-80 -8 84 0
-80 -9 84 0
-81 -7 83 0
-81 -8 84 0
-81 -9 82 0
-10 -28 -46 -64 -82 14 0
-10 -29 -46 -64 -82 14 0
-10 -30 -46 -64 -82 14 0
-10 -28 -47 -64 -82 14 0
-10 -29 -47 -64 -82 14 0
-10 -30 -47 -64 -82 14 0
-10 -28 -48 -64 -82 14 0
-10 -29 -48 -64 -82 14 0
-10 -30 -48 -64 -82 14 0
-10 -28 -46 -65 -82 14 0
-10 -29 -46 -65 -82 14 0
-10 -30 -46 -65 -82 14 0
-10 -28 -47 -65 -82 14 0
-10 -29 -47 -65 -82 14 0
-10 -30 -47 -65 -82 14 0
-10 -28 -48 -65 -82 14 0
-10 -29 -48 -65 -82 14 0
-10 -30 -48 -65 -82 14 0
-10 -28 -46 -66 -82 14 0
-10 -29 -46 -66 -82 14 0
-10 -30 -46 -66 -82 14 0
-10 -28 -47 -66 -82 14 0
-10 -29 -47 -66 -82 14 0
-10 -30 -47 -66 -82 14 0
-10 -28 -48 -66 -82 14 0
-10 -29 -48 -66 -82 14 0
-10 -30 -48 -66 -82 14 0
-10 -28 -46 -64 -83 14 0
-10 -29 -46 -64 -83 14 0
-10 -30 -46 -64 -83 14 0
-10 -28 -47 -64 -83 14 0
-10 -29 -47 -64 -83 14 0
-10 -30 -47 -64 -83 14 0
-10 -28 -48 -64 -83 14 0
-10 -29 -48 -64 -83 14 0
-10 -30 -48 -64 -83 14 0
-10 -28 -46 -65 -83 14 0
-10 -29 -46 -65 -83 14 0
-10 -30 -46 -65 -83 14 0
-10 -28 -47 -65 -83 14 0
-10 -29 -47 -65 -83 14 0
-10 -30 -47 -65 -83 14 0
-10 -28 -48 -65 -83 14 0
-10 -29 -48 -65 -83 14 0
-10 -30 -48 -65 -83 14 0
-10 -28 -46 -66 -83 14 0
-10 -29 -46 -66 -83 14 0
-10 -30 -46 -66 -83 14 0
-10 -28 -47 -66 -83 14 0
-10 -29 -47 -66 -83 14 0
-10 -30 -47 -66 -83 14 0
-10 -28 -48 -66 -83 14 0
-10 -29 -48 -66 -83 14 0
-10 -30 -48 -66 -83 14 0
-10 -28 -46 -64 -84 14 0
-10 -29 -46 -64 -84 14 0
-10 -30 -46 -64 -84 14 0
-10 -28 -47 -64 -84 14 0
-10 -29 -47 -64 -84 14 0
-10 -30 -47 -64 -84 14 0
-10 -28 -48 -64 -84 14 0
-10 -29 -48 -64 -84 14 0
-10 -30 -48 -64 -84 14 0
-10 -28 -46 -65 -84 14 0
-10 -29 -46 -65 -84 14 0
-10 -30 -46 -65 -84 14 0
-10 -28 -47 -65 -84 14 0
-10 -29 -47 -65 -84 14 0
-10 -30 -47 -65 -84 14 0
-10 -28 -48 -65 -84 14 0
-10 -29 -48 -65 -84 14 0
-10 -30 -48 -65 -84 14 0
-10 -28 -46 -66 -84 14 0
-10 -29 -46 -66 -84 14 0
-10 -30 -46 -66 -84 14 0
-10 -28 -47 -66 -84 14 0
-10 -29 -47 -66 -84 14 0
-10 -30 -47 -66 -84 14 0
-10 -28 -48 -66 -84 14 0
-10 -29 -48 -66 -84 14 0
-10 -30 -48 -66 -84 14 0
-11 -28 -46 -64 -82 14 0
-11 -29 -46 -64 -82 14 0
-11 -30 -46 -64 -82 14 0
-11 -28 -47 -64 -82 14 0
-11 -29 -47 -64 -82 14 0
-11 -30 -47 -64 -82 14 0
-11 -28 -48 -64 -82 14 0
-11 -29 -48 -64 -82 14 0
-11 -30 -48 -64 -82 14 0
-11 -28 -46 -65 -82 14 0
-11 -29 -46 -65 -82 14 0
-11 -30 -46 -65 -82 14 0
-11 -28 -47 -65 -82 14 0
-11 -29 -47 -65 -82 14 0
-11 -30 -47 -65 -82 14 0
-11 -28 -48 -65 -82 14 0
-11 -29 -48 -65 -82 14 0
-11 -30 -48 -65 -82 14 0
-11 -28 -46 -66 -82 14 0
-11 -29 -46 -66 -82 14 0
-11 -30 -46 -66 -82 14 0
-11 -28 -47 -66 -82 14 0
-11 -29 -47 -66 -82 14 0
-11 -30 -47 -66 -82 14 0
-11 -28 -48 -66 -82 14 0
-11 -29 -48 -66 -82 14 0
-11 -30 -48 -66 -82 14 0
-11 -28 -46 -64 -83 14 0
-11 -29 -46 -64 -83 14 0
-11 -30 -46 -64 -83 14 0
-11 -28 -47 -64 -83 14 0
-11 -29 -47 -64 -83 14 0
-11 -30 -47 -64 -83 14 0
-11 -28 -48 -64 -83 14 0
-11 -29 -48 -64 -83 14 0
-11 -30 -48 -64 -83 14 0
-11 -28 -46 -65 -83 14 0
-11 -29 -46 -65 -83 14 0
-11 -30 -46 -65 -83 14 0
-11 -28 -47 -65 -83 14 0
-11 -29 -47 -65 -83 15 0
-11 -30 -47 -65 -83 15 0
-11 -28 -48 -65 -83 14 0
-11 -29 -48 -65 -83 15 0
-11 -30 -48 -65 -83 15 0
-11 -28 -46 -66 -83 14 0
-11 -29 -46 -66 -83 14 0
-11 -30 -46 -66 -83 14 0
-11 -28 -47 -66 -83 14 0
-11 -29 -47 -66 -83 15 0
-11 -30 -47 -66 -83 15 0
-11 -28 -48 -66 -83 14 0
-11 -29 -48 -66 -83 15 0
-11 -30 -48 -66 -83 15 0
-11 -28 -46 -64 -84 14 0
-11 -29 -46 -64 -84 14 0
-11 -30 -46 -64 -84 14 0
-11 -28 -47 -64 -84 14 0
-11 -29 -47 -64 -84 14 0
-11 -30 -47 -64 -84 14 0
-11 -28 -48 -64 -84 14 0
-11 -29 -48 -64 -84 14 0
-11 -30 -48 -64 -84 14 0
-11 -28 -46 -65 -84 14 0
-11 -29 -46 -65 -84 14 0
-11 -30 -46 -65 -84 14 0
-11 -28 -47 -65 -84 14 0
-11 -29 -47 -65 -84 15 0
-11 -30 -47 -65 -84 15 0
-11 -28 -48 -65 -84 14 0
-11 -29 -48 -65 -84 15 0
-11 -30 -48 -65 -84 15 0
-11 -28 -46 -66 -84 14 0
-11 -29 -46 -66 -84 14 0
-11 -30 -46 -66 -84 14 0
-11 -28 -47 -66 -84 14 0
-11 -29 -47 -66 -84 15 0
-11 -30 -47 -66 -84 15 0
-11 -28 -48 -66 -84 14 0
-11 -29 -48 -66 -84 15 0
-11 -30 -48 -66 -84 15 0
-12 -28 -46 -64 -82 14 0
-12 -29 -46 -64 -82 14 0
-12 -30 -46 -64 -82 14 0
-12 -28 -47 -64 -82 14 0
-12 -29 -47 -64 -82 14 0
-12 -30 -47 -64 -82 14 0
-12 -28 -48 -64 -82 14 0
-12 -29 -48 -64 -82 14 0
-12 -30 -48 -64 -82 14 0
-12 -28 -46 -65 -82 14 0
-12 -29 -46 -65 -82 14 0
-12 -30 -46 -65 -82 14 0
-12 -28 -47 -65 -82 14 0
-12 -29 -47 -65 -82 14 0
-12 -30 -47 -65 -82 14 0
-12 -28 -48 -65 -82 14 0
-12 -29 -48 -65 -82 14 0
-12 -30 -48 -65 -82 14 0
-12 -28 -46 -66 -82 14 0
-12 -29 -46 -66 -82 14 0
-12 -30 -46 -66 -82 14 0
-12 -28 -47 -66 -82 14 0
-12 -29 -47 -66 -82 14 0
-12 -30 -47 -66 -82 14 0
-12 -28 -48 -66 -82 14 0
-12 -29 -48 -66 -82 14 0
-12 -30 -48 -66 -82 14 0
-12 -28 -46 -64 -83 14 0
-12 -29 -46 -64 -83 14 0
-12 -30 -46 -64 -83 14 0
-12 -28 -47 -64 -83 14 0
-12 -29 -47 -64 -83 14 0
-12 -30 -47 -64 -83 14 0
-12 -28 -48 -64 -83 14 0
-12 -29 -48 -64 -83 14 0
-12 -30 -48 -64 -83 14 0
-12 -28 -46 -65 -83 14 0
-12 -29 -46 -65 -83 14 0
-12 -30 -46 -65 -83 14 0
-12 -28 -47 -65 -83 14 0
-12 -29 -47 -65 -83 15 0
-12 -30 -47 -65 -83 15 0
-12 -28 -48 -65 -83 14 0
-12 -29 -48 -65 -83 15 0
-12 -30 -48 -65 -83 15 0
-12 -28 -46 -66 -83 14 0
-12 -29 -46 -66 -83 14 0
-12 -30 -46 -66 -83 14 0
-12 -28 -47 -66 -83 14 0
-12 -29 -47 -66 -83 15 0
-12 -30 -47 -66 -83 15 0
-12 -28 -48 -66 -83 14 0
-12 -29 -48 -66 -83 15 0
-12 -30 -48 -66 -83 15 0
-12 -28 -46 -64 -84 14 0
-12 -29 -46 -64 -84 14 0
-12 -30 -46 -64 -84 14 0
-12 -28 -47 -64 -84 14 0
-12 -29 -47 -64 -84 14 0
-12 -30 -47 -64 -84 14 0
-12 -28 -48 -64 -84 14 0
-12 -29 -48 -64 -84 14 0
-12 -30 -48 -64 -84 14 0
-12 -28 -46 -65 -84 14 0
-12 -29 -46 -65 -84 14 0
-12 -30 -46 -65 -84 14 0
-12 -28 -47 -65 -84 14 0
-12 -29 -47 -65 -84 15 0
-12 -30 -47 -65 -84 15 0
-12 -28 -48 -65 -84 14 0
-12 -29 -48 -65 -84 15 0
-12 -30 -48 -65 -84 15 0
-12 -28 -46 -66 -84 14 0
-12 -29 -46 -66 -84 14 0
-12 -30 -46 -66 -84 14 0
-12 -28 -47 -66 -84 14 0
-12 -29 -47 -66 -84 15 0
-12 -30 -47 -66 -84 15 0
-12 -28 -48 -66 -84 14 0
-12 -29 -48 -66 -84 15 0
-12 -30 -48 -66 -84 13 0
-28 -10 32 0
-28 -11 32 0
-28 -12 32 0
-29 -10 32 0
-29 -11 33 0
-29 -12 33 0
-30 -10 32 0
-30 -11 33 0
-30 -12 31 0
-46 -10 50 0
-46 -11 50 0
-46 -12 50 0
-47 -10 50 0
-47 -11 51 0
-47 -12 51 0
-48 -10 50 0
-48 -11 51 0
-48 -12 49 0
-64 -10 68 0
-64 -11 68 0
-64 -12 68 0
-65 -10 68 0
-65 -11 69 0
-65 -12 69 0
-66 -10 68 0
-66 -11 69 0
-66 -12 67 0
-82 -10 86 0
-82 -11 86 0
-82 -12 86 0
-83 -10 86 0
-83 -11 87 0
-83 -12 87 0
-84 -10 86 0
-84 -11 87 0
-84 -12 85 0
-13 -31 -49 -67 -85 17 0
-13 -32 -49 -67 -85 17 0
-13 -33 -49 -67 -85 17 0
-13 -31 -50 -67 -85 17 0
-13 -32 -50 -67 -85 17 0
-13 -33 -50 -67 -85 17 0
-13 -31 -51 -67 -85 17 0
-13 -32 -51 -67 -85 17 0
-13 -33 -51 -67 -85 17 0
-13 -31 -49 -68 -85 17 0
-13 -32 -49 -68 -85 17 0
-13 -33 -49 -68 -85 17 0
-13 -31 -50 -68 -85 17 0
-13 -32 -50 -68 -85 17 0
-13 -33 -50 -68 -85 17 0
-13 -31 -51 -68 -85 17 0
-13 -32 -51 -68 -85 17 0
-13 -33 -51 -68 -85 17 0
-13 -31 -49 -69 -85 17 0
-13 -32 -49 -69 -85 17 0
-13 -33 -49 -69 -85 17 0
-13 -31 -50 -69 -85 17 0
-13 -32 -50 -69 -85 17 0
-13 -33 -50 -69 -85 17 0
-13 -31 -51 -69 -85 17 0
-13 -32 -51 -69 -85 17 0
-13 -33 -51 -69 -85 17 0
-13 -31 -49 -67 -86 17 0
-13 -32 -49 -67 -86 17 0
-13 -33 -49 -67 -86 17 0
-13 -31 -50 -67 -86 17 0
-13 -32 -50 -67 -86 17 0
-13 -33 -50 -67 -86 17 0
-13 -31 -51 -67 -86 17 0
-13 -32 -51 -67 -86 17 0
-13 -33 -51 -67 -86 17 0
-13 -31 -49 -68 -86 17 0
-13 -32 -49 -68 -86 17 0
-13 -33 -49 -68 -86 17 0
-13 -31 -50 -68 -86 17 0
-13 -32 -50 -68 -86 17 0
-13 -33 -50 -68 -86 17 0
-13 -31 -51 -68 -86 17 0
-13 -32 -51 -68 -86 17 0
-13 -33 -51 -68 -86 17 0
-13 -31 -49 -69 -86 17 0
-13 -32 -49 -69 -86 17 0
-13 -33 -49 -69 -86 17 0
-13 -31 -50 -69 -86 17 0
-13 -32 -50 -69 -86 17 0
-13 -33 -50 -69 -86 17 0
-13 -31 -51 -69 -86 17 0
-13 -32 -51 -69 -86 17 0
-13 -33 -51 -69 -86 17 0
-13 -31 -49 -67 -87 17 0
-13 -32 -49 -67 -87 17 0
-13 -33 -49 -67 -87 17 0
-13 -31 -50 -67 -87 17 0
-13 -32 -50 -67 -87 17 0
-13 -33 -50 -67 -87 17 0
-13 -31 -51 -67 -87 17 0
-13 -32 -51 -67 -87 17 0
-13 -33 -51 -67 -87 17 0
-13 -31 -49 -68 -87 17 0
-13 -32 -49 -68 -87 17 0
-13 -33 -49 -68 -87 17 0
-13 -31 -50 -68 -87 17 0
-13 -32 -50 -68 -87 17 0
-13 -33 -50 -68 -87 17 0
-13 -31 -51 -68 -87 17 0
-13 -32 -51 -68 -87 17 0
-13 -33 -51 -68 -87 17 0
-13 -31 -49 -69 -87 17 0
-13 -32 -49 -69 -87 17 0
-13 -33 -49 -69 -87 17 0
-13 -31 -50 -69 -87 17 0
-13 -32 -50 -69 -87 17 0
-13 -33 -50 -69 -87 17 0
-13 -31 -51 -69 -87 17 0
-13 -32 -51 -69 -87 17 0
-13 -33 -51 -69 -87 17 0
-14 -31 -49 -67 -85 17 0
-14 -32 -49 -67 -85 17 0
-14 -33 -49 -67 -85 17 0
-14 -31 -50 -67 -85 17 0
-14 -32 -50 -67 -85 17 0
-14 -33 -50 -67 -85 17 0
-14 -31 -51 -67 -85 17 0
-14 -32 -51 -67 -85 17 0
-14 -33 -51 -67 -85 17 0
-14 -31 -49 -68 -85 17 0
-14 -32 -49 -68 -85 17 0
-14 -33 -49 -68 -85 17 0
-14 -31 -50 -68 -85 17 0
-14 -32 -50 -68 -85 17 0
-14 -33 -50 -68 -85 17 0
-14 -31 -51 -68 -85 17 0
-14 -32 -51 -68 -85 17 0
-14 -33 -51 -68 -85 17 0
-14 -31 -49 -69 -85 17 0
-14 -32 -49 -69 -85 17 0
-14 -33 -49 -69 -85 17 0
-14 -31 -50 -69 -85 17 0
-14 -32 -50 -69 -85 17 0
-14 -33 -50 -69 -85 17 0
-14 -31 -51 -69 -85 17 0
-14 -32 -51 -69 -85 17 0
-14 -33 -51 -69 -85 17 0
-14 -31 -49 -67 -86 17 0
-14 -32 -49 -67 -86 17 0
-14 -33 -49 -67 -86 17 0
-14 -31 -50 -67 -86 17 0
-14 -32 -50 -67 -86 17 0
-14 -33 -50 -67 -86 17 0
-14 -31 -51 -67 -86 17 0
-14 -32 -51 -67 -86 17 0
-14 -33 -51 -67 -86 17 0
-14 -31 -49 -68 -86 17 0
-14 -32 -49 -68 -86 17 0
-14 -33 -49 -68 -86 17 0
-14 -31 -50 -68 -86 17 0
-14 -32 -50 -68 -86 18 0
-14 -33 -50 -68 -86 18 0
-14 -31 -51 -68 -86 17 0
-14 -32 -51 -68 -86 18 0
-14 -33 -51 -68 -86 18 0
-14 -31 -49 -69 -86 17 0
-14 -32 -49 -69 -86 17 0
-14 -33 -49 -69 -86 17 0
-14 -31 -50 -69 -86 17 0
-14 -32 -50 -69 -86 18 0
-14 -33 -50 -69 -86 18 0
-14 -31 -51 -69 -86 17 0
-14 -32 -51 -69 -86 18 0
-14 -33 -51 -69 -86 18 0
-14 -31 -49 -67 -87 17 0
-14 -32 -49 -67 -87 17 0
-14 -33 -49 -67 -87 17 0
-14 -31 -50 -67 -87 17 0
-14 -32 -50 -67 -87 17 0
-14 -33 -50 -67 -87 17 0
-14 -31 -51 -67 -87 17 0
-14 -32 -51 -67 -87 17 0
-14 -33 -51 -67 -87 17 0
-14 -31 -49 -68 -87 17 0
-14 -32 -49 -68 -87 17 0
-14 -33 -49 -68 -87 17 0
-14 -31 -50 -68 -87 17 0
-14 -32 -50 -68 -87 18 0
-14 -33 -50 -68 -87 18 0
-14 -31 -51 -68 -87 17 0
-14 -32 -51 -68 -87 18 0
-14 -33 -51 -68 -87 18 0
-14 -31 -49 -69 -87 17 0
-14 -32 -49 -69 -87 17 0
-14 -33 -49 -69 -87 17 0
-14 -31 -50 -69 -87 17 0
-14 -32 -50 -69 -87 18 0
-14 -33 -50 -69 -87 18 0
-14 -31 -51 -69 -87 17 0
-14 -32 -51 -69 -87 18 0
-14 -33 -51 -69 -87 18 0
-15 -31 -49 -67 -85 17 0
-15 -32 -49 -67 -85 17 0
-15 -33 -49 -67 -85 17 0
-15 -31 -50 -67 -85 17 0
-15 -32 -50 -67 -85 17 0
-15 -33 -50 -67 -85 17 0
-15 -31 -51 -67 -85 17 0
-15 -32 -51 -67 -85 17 0
-15 -33 -51 -67 -85 17 0
-15 -31 -49 -68 -85 17 0
-15 -32 -49 -68 -85 17 0
-15 -33 -49 -68 -85 17 0
-15 -31 -50 -68 -85 17 0
-15 -32 -50 -68 -85 17 0
-15 -33 -50 -68 -85 17 0
-15 -31 -51 -68 -85 17 0
-15 -32 -51 -68 -85 17 0
-15 -33 -51 -68 -85 17 0
-15 -31 -49 -69 -85 17 0
-15 -32 -49 -69 -85 17 0
-15 -33 -49 -69 -85 17 0
-15 -31 -50 -69 -85 17 0
-15 -32 -50 -69 -85 17 0
-15 -33 -50 -69 -85 17 0
-15 -31 -51 -69 -85 17 0
-15 -32 -51 -69 -85 17 0
-15 -33 -51 -69 -85 17 0
-15 -31 -49 -67 -86 17 0
-15 -32 -49 -67 -86 17 0
-15 -33 -49 -67 -86 17 0
-15 -31 -50 -67 -86 17 0
-15 -32 -50 -67 -86 17 0
-15 -33 -50 -67 -86 17 0
-15 -31 -51 -67 -86 17 0
-15 -32 -51 -67 -86 17 0
-15 -33 -51 -67 -86 17 0
-15 -31 -49 -68 -86 17 0
-15 -32 -49 -68 -86 17 0
-15 -33 -49 -68 -86 17 0
-15 -31 -50 -68 -86 17 0
-15 -32 -50 -68 -86 18 0
-15 -33 -50 -68 -86 18 0
-15 -31 -51 -68 -86 17 0
-15 -32 -51 -68 -86 18 0
-15 -33 -51 -68 -86 18 0
-15 -31 -49 -69 -86 17 0
-15 -32 -49 -69 -86 17 0
-15 -33 -49 -69 -86 17 0
-15 -31 -50 -69 -86 17 0
-15 -32 -50 -69 -86 18 0
-15 -33 -50 -69 -86 18 0
-15 -31 -51 -69 -86 17 0
-15 -32 -51 -69 -86 18 0
-15 -33 -51 -69 -86 18 0
-15 -31 -49 -67 -87 17 0
-15 -32 -49 -67 -87 17 0
-15 -33 -49 -67 -87 17 0
-15 -31 -50 -67 -87 17 0
-15 -32 -50 -67 -87 17 0
-15 -33 -50 -67 -87 17 0
-15 -31 -51 -67 -87 17 0
-15 -32 -51 -67 -87 17 0
-15 -33 -51 -67 -87 17 0
-15 -31 -49 -68 -87 17 0
-15 -32 -49 -68 -87 17 0
-15 -33 -49 -68 -87 17 0
-15 -31 -50 -68 -87 17 0
-15 -32 -50 -68 -87 18 0
-15 -33 -50 -68 -87 18 0
-15 -31 -51 -68 -87 17 0
-15 -32 -51 -68 -87 18 0
-15 -33 -51 -68 -87 18 0
-15 -31 -49 -69 -87 17 0
-15 -32 -49 -69 -87 17 0
-15 -33 -49 -69 -87 17 0
-15 -31 -50 -69 -87 17 0
-15 -32 -50 -69 -87 18 0
-15 -33 -50 -69 -87 18 0
-15 -31 -51 -69 -87 17 0
-15 -32 -51 -69 -87 18 0
-15 -33 -51 -69 -87 16 0
-31 -13 35 0
-31 -14 35 0
-31 -15 35 0
-32 -13 35 0
-32 -14 36 0
-32 -15 36 0
-33 -13 35 0
-33 -14 36 0
-33 -15 34 0
-49 -13 53 0
-49 -14 53 0
-49 -15 53 0
-50 -13 53 0
-50 -14 54 0
-50 -15 54 0
-51 -13 53 0
-51 -14 54 0
-51 -15 52 0
-67 -13 71 0
-67 -14 71 0
-67 -15 71 0
-68 -13 71 0
-68 -14 72 0
-68 -15 72 0
-69 -13 71 0
-69 -14 72 0
-69 -15 70 0
-85 -13 89 0
-85 -14 89 0
-85 -15 89 0
-86 -13 89 0
-86 -14 90 0
-86 -15 90 0
-87 -13 89 0
-87 -14 90 0
-87 -15 88 0
92 93 94 95 96 0
100 101 102 -92 0
1 -100 0
4 -100 0
2 -101 0
5 -101 0
3 -102 0
6 -102 0
118 119 120 -92 0
19 -118 0
22 -118 0
20 -119 0
23 -119 0
21 -120 0
24 -120 0
136 137 138 -92 0
37 -136 0
40 -136 0
38 -137 0
41 -137 0
39 -138 0
42 -138 0
154 155 156 -92 0
55 -154 0
58 -154 0
56 -155 0
59 -155 0
57 -156 0
60 -156 0
172 173 174 -92 0
73 -172 0
76 -172 0
74 -173 0
77 -173 0
75 -174 0
78 -174 0
103 104 105 -93 0
1 -103 0
7 -103 0
2 -104 0
8 -104 0
3 -105 0
9 -105 0
121 122 123 -93 0
19 -121 0
25 -121 0
20 -122 0
26 -122 0
21 -123 0
27 -123 0
139 140 141 -93 0
37 -139 0
43 -139 0
38 -140 0
44 -140 0
39 -141 0
45 -141 0
157 158 159 -93 0
55 -157 0
61 -157 0
56 -158 0
62 -158 0
57 -159 0
63 -159 0
175 176 177 -93 0
73 -175 0
79 -175 0
74 -176 0
80 -176 0
75 -177 0
81 -177 0
106 107 108 -94 0
1 -106 0
10 -106 0
2 -107 0
11 -107 0
3 -108 0
12 -108 0
124 125 126 -94 0
19 -124 0
28 -124 0
20 -125 0
29 -125 0
21 -126 0
30 -126 0
142 143 144 -94 0
37 -142 0
46 -142 0
38 -143 0
47 -143 0
39 -144 0
48 -144 0
160 161 162 -94 0
55 -160 0
64 -160 0
56 -161 0
65 -161 0
57 -162 0
66 -162 0
178 179 180 -94 0
73 -178 0
82 -178 0
74 -179 0
83 -179 0
75 -180 0
84 -180 0
109 110 111 -95 0
1 -109 0
13 -109 0
2 -110 0
14 -110 0
3 -111 0
15 -111 0
127 128 129 -95 0
19 -127 0
31 -127 0
20 -128 0
32 -128 0
21 -129 0
33 -129 0
145 146 147 -95 0
37 -145 0
49 -145 0
38 -146 0
50 -146 0
39 -147 0
51 -147 0
163 164 165 -95 0
55 -163 0
67 -163 0
56 -164 0
68 -164 0
57 -165 0
69 -165 0
181 182 183 -95 0
73 -181 0
85 -181 0
74 -182 0
86 -182 0
75 -183 0
87 -183 0
112 113 114 -96 0
1 -112 0
16 -112 0
2 -113 0
17 -113 0
3 -114 0
18 -114 0
130 131 132 -96 0
19 -130 0
34 -130 0
20 -131 0
35 -131 0
21 -132 0
36 -132 0
148 149 150 -96 0
37 -148 0
52 -148 0
38 -149 0
53 -149 0
39 -150 0
54 -150 0
166 167 168 -96 0
55 -166 0
70 -166 0
56 -167 0
71 -167 0
57 -168 0
72 -168 0
184 185 186 -96 0
73 -184 0
88 -184 0
74 -185 0
89 -185 0
75 -186 0
90 -186 0
-1 -19 -37 -55 -73 0
-2 -20 -38 -56 -74 0
-3 -21 -39 -57 -75 0
